CMD:
./solvers/bin/cadical --plain --no-reduce -t 1600 ./data/cnfs//intel009/intel009.85.cnf

c --- [ banner ] -------------------------------------------------------------
c 
c CaDiCaL SAT Solver
c Copyright (c) 2016-2024
c A. Biere, M. Fleury, N. Froleyks, K. Fazekas, F. Pollitt, T. Faller
c JKU Linz, University of Freiburg, TU Wien
c 
c Version 2.1.3 5296d3d2a9bf48c154ab2acb5e44625776d821bf
c g++ (Gentoo 12.3.1_p20230526 p2) 12.3.1 20230526 -Wall -Wextra -O3 -DNDEBUG
c Sat Aug 9 07:26:21 PDT 2025 Linux cedar2.int.cedar.computecanada.ca 5.14.0-362.24.2.el9_3.x86_64 x86_64
c 
c --- [ limit ] --------------------------------------------------------------
c 
c setting time limit to 1600 seconds real time (due to '-t 1600')
c 
c --- [ parsing input ] ------------------------------------------------------
c 
c reading DIMACS file from './data/cnfs//intel009/intel009.85.cnf'
c opening file to read './data/cnfs//intel009/intel009.85.cnf'
c found 'p cnf 7171238 20112113' header
c parsed 20112113 clauses in 4.33 seconds process time
c 
c --- [ options ] ------------------------------------------------------------
c 
c   --compact=false                (different from default 'true')
c   --decompose=false              (different from default 'true')
c   --deduplicate=false            (different from default 'true')
c   --elim=false                   (different from default 'true')
c   --probe=false                  (different from default 'true')
c   --reduce=false                 (different from default 'true')
c   --subsume=false                (different from default 'true')
c   --ternary=false                (different from default 'true')
c   --transred=false               (different from default 'true')
c   --vivify=false                 (different from default 'true')
c 
c --- [ solving ] ------------------------------------------------------------
c 
c time measured in process time since initialization
c 
c  seconds    reductions  redundant   irredundant
c          MB     restarts       trail          variables
c            level   conflicts       glue             remaining
c 
c *  4.33 3037  0 0   0    0    0  0% 0 18741624 4828256 67%
c {  4.79 3046  0 0   0    0    0  0% 0 18741624 4828256 67%
c i  4.85 3046 3359 0   0   10    7 33% 2 18741624 4787319 67%
c i  4.86 3046 3379 0   0   11    7 34% 2 18741624 4786753 67%
c i  4.87 3046 3416 0   0   13    8 34% 2 18741624 4786752 67%
c i  4.88 3046 3430 0   0   14    8 34% 2 18741624 4786751 67%
c i  4.88 3046 3443 0   0   15    8 34% 2 18741624 4786750 67%
c i  4.89 3046 3453 0   0   16    8 34% 2 18741624 4786749 67%
c i  4.89 3046 3463 0   0   17    8 34% 2 18741624 4786748 67%
c i  4.90 3046 3472 0   0   18    8 34% 2 18741624 4786747 67%
c i  4.90 3046 3479 0   0   19    8 34% 1 18741624 4786746 67%
c i  4.91 3046 3486 0   0   20    8 34% 1 18741624 4786745 67%
c i  4.91 3046 3492 0   0   21    8 34% 1 18741624 4786744 67%
c i  4.92 3046 3498 0   0   22    8 34% 1 18741624 4786743 67%
c i  4.92 3046 3503 0   0   23    8 34% 1 18741624 4786742 67%
c i  4.93 3046 3508 0   0   24    8 34% 1 18741624 4786741 67%
c i  4.94 3046 3513 0   0   25    8 34% 1 18741624 4786740 67%
c i  4.94 3046 3517 0   0   26    8 34% 1 18741624 4786739 67%
c i  4.95 3046 3521 0   0   27    8 34% 1 18741624 4786738 67%
c i  4.95 3046 3524 0   0   28    8 34% 1 18741624 4786737 67%
c 
c  seconds      reductions  redundant   irredundant
c          MB       restarts       trail          variables
c             level    conflicts       glue             remaining
c 
c i  4.96 3046 3528 0   0   29    8 34% 1 18741624 4786736 67%
c i  4.96 3046 3531 0   0   30    8 34% 1 18741624 4786735 67%
c i  4.97 3046 3534 0   0   31    8 34% 1 18741624 4786734 67%
c i  4.97 3046 3537 0   0   32    8 34% 1 18741624 4786733 67%
c i  4.98 3046 3539 0   0   33    8 34% 1 18741624 4786732 67%
c i  4.98 3046 3542 0   0   34    8 34% 1 18741624 4786731 67%
c i  4.99 3046 3544 0   0   35    8 34% 1 18741624 4786730 67%
c i  5.00 3046 3547 0   0   36    8 34% 1 18741624 4786729 67%
c i  5.00 3046 3549 0   0   37    8 34% 1 18741624 4786728 67%
c i  5.01 3046 3551 0   0   38    8 34% 1 18741624 4786727 67%
c i  5.01 3046 3553 0   0   39    8 34% 1 18741624 4786726 67%
c i  5.02 3046 3555 0   0   40    8 34% 1 18741624 4786725 67%
c i  5.02 3046 3557 0   0   41    8 34% 1 18741624 4786724 67%
c i  5.03 3046 3559 0   0   42    8 34% 1 18741624 4786723 67%
c i  5.03 3046 3561 0   0   43    8 34% 1 18741624 4786722 67%
c i  5.04 3046 3562 0   0   44    8 34% 1 18741624 4786721 67%
c i  5.04 3046 3564 0   0   45    8 34% 1 18741624 4786720 67%
c i  5.05 3046 3565 0   0   46    8 34% 1 18741624 4786719 67%
c i  5.05 3046 3567 0   0   47    8 34% 1 18741624 4786718 67%
c i  5.06 3046 3569 0   0   48    8 34% 1 18741624 4786717 67%
c 
c  seconds      reductions  redundant   irredundant
c          MB       restarts       trail          variables
c             level    conflicts       glue             remaining
c 
c i  5.06 3046 3570 0   0   49    8 34% 1 18741624 4786716 67%
c i  5.07 3046 3571 0   0   50    8 34% 1 18741624 4786715 67%
c i  5.08 3046 3573 0   0   51    8 34% 1 18741624 4786714 67%
c i  5.08 3046 3574 0   0   52    8 34% 1 18741624 4786713 67%
... skipped 1190 lines ...
c i 10.89 3051 17364 0   9 1017   20 51% 0 18741624 4785507 67%
c 
c  seconds       reductions  redundant   irredundant
c          MB        restarts       trail          variables
c              level    conflicts       glue             remaining
c 
c i 10.89 3051 18043 0   9 1018   20 51% 0 18741624 4785501 67%
c i 10.93 3051 18793 0   9 1019   20 51% 0 18741624 4785497 67%
c i 10.93 3051 19468 0   9 1020   20 52% 0 18741624 4785491 67%
c i 10.96 3052 20208 0   9 1021   20 52% 0 18741624 4785487 67%
c i 10.96 3052 20881 0   9 1022   20 52% 0 18741624 4785481 67%
c i 11.00 3052 21613 0   9 1023   20 52% 0 18741624 4785477 67%
c i 11.01 3052 22284 0   9 1024   20 52% 0 18741624 4785471 67%
c i 11.03 3052 23010 0   9 1025   20 53% 0 18741624 4785467 67%
c i 11.04 3052 23680 0   9 1026   20 53% 0 18741624 4785461 67%
c i 11.08 3070 24401 0   9 1027   20 53% 0 18741624 4785457 67%
c i 11.08 3070 25071 0   9 1028   20 53% 0 18741624 4785451 67%
c i 11.10 3070 25788 0   9 1029   20 54% 0 18741624 4785447 67%
c i 11.11 3070 26457 0   9 1030   20 54% 0 18741624 4785441 67%
c i 11.14 3070 27170 0   9 1031   20 54% 0 18741624 4785437 67%
c i 11.14 3070 27839 0   9 1032   20 54% 0 18741624 4785431 67%
c i 11.16 3072 28550 0   9 1033   20 55% 0 18741624 4785427 67%
c i 11.17 3072 29218 0   9 1034   20 55% 0 18741624 4785421 67%
c i 11.20 3072 29926 0   9 1035   20 55% 0 18741624 4785417 67%
c i 11.20 3072 30595 0   9 1036   20 55% 0 18741624 4785411 67%
c i 11.23 3072 31301 0   9 1037   20 55% 0 18741624 4785407 67%
c 
c  seconds       reductions  redundant   irredundant
c          MB        restarts       trail          variables
c              level    conflicts       glue             remaining
c 
c i 11.23 3072 31970 0   9 1038   20 56% 0 18741624 4785401 67%
c i 11.26 3072 32674 0   9 1039   20 56% 0 18741624 4785397 67%
c i 11.27 3072 33343 0   9 1040   20 56% 0 18741624 4785391 67%
c i 11.29 3072 34045 0   9 1041   20 56% 0 18741624 4785387 67%
c i 11.30 3072 34714 0   9 1042   20 57% 0 18741624 4785381 67%
c i 11.33 3072 35415 0   9 1043   20 57% 0 18741624 4785377 67%
c i 11.33 3072 36084 0   9 1044   20 57% 0 18741624 4785371 67%
c i 11.35 3072 36784 0   9 1045   20 57% 0 18741624 4785367 67%
c i 11.36 3072 37453 0   9 1046   20 57% 0 18741624 4785361 67%
c i 11.66 3072 31477 0   9 1180  118 57% 3 18741624 4627486 65%
c i 11.70 3072 26364 0   9 1222  150 55% 3 18741624 4622980 64%
c i 11.72 3072 25044 0   9 1236  161 55% 2 18741624 4613300 64%
c i 11.72 3072 24956 0   9 1237  161 55% 2 18741624 4604630 64%
c i 11.72 3072 24869 0   9 1238  161 55% 2 18741624 4599640 64%
c i 11.72 3072 24037 0   9 1248  169 55% 2 18741624 4594541 64%
c ] 11.78 3072 23958 0   9 1250  169 55% 2 18741624 4594095 64%
c 0 11.78 3072 23958 0   9 1250  169 55% 2 18741624 4594095 64%
c 
c --- [ result ] -------------------------------------------------------------
c 
s UNSATISFIABLE
c 
c --- [ run-time profiling ] -------------------------------------------------
c 
c process time taken by individual solving procedures
c (percentage relative to process time for solving)
c 
c         7.44  100.00% search
c         5.19   69.74% unstable
c         4.33   58.20% parse
c         1.80   24.17% stable
c         0.45    6.09% lucky
c         0.00    0.00% simplify
c   =================================
c         7.44   63.21% solve
c 
c last line shows process time for solving
c (percentage relative to total process time)
c 
c --- [ statistics ] ---------------------------------------------------------
c 
c chronological:              1118        89.44 %  of conflicts
c conflicts:                  1250       167.95    per second
c decisions:                 89169     11980.68    per second
c fixed:                   2577135        35.94 %  of all variables
c learned:                    1233        98.64 %  per conflict
c learned_lits:               3245       100.00 %  learned literals
c minimized:                     0         0.00 %  learned literals
c shrunken:                    446        13.74 %  learned literals
c minishrunken:                364        11.22 %  learned literals
c otfs:                          8         0.64 %  of conflict
c propagations:            8712275         1.17 M  per second
c rephased:                      1      1250.00    interval
c restarts:                      9       138.89    interval
c stabilizing:                   1        20.00 %  of conflicts
c subsumed:                     32         0.00 %  of all clauses
c strengthened:                  8         0.00 %  of all clauses
c 
c seconds are measured in process time for solving
c 
c --- [ resources ] ----------------------------------------------------------
c 
c total process time since initialization:        11.78    seconds
c total real time since initialization:           11.88    seconds
c maximum resident set size of process:         3070.89    MB
c 
c --- [ shutting down ] ------------------------------------------------------
c 
c exit 20
